NAME : PR123C.82341.tour
COMMENT : Cost = 0_82341
COMMENT : Found by LKH [Keld Helsgaun] Sun Sep 17 16:52:42 2017
TYPE : TOUR
DIMENSION : 123
TOUR_SECTION
1
8
2
4
5
6
32
31
30
35
36
64
62
63
68
71
72
74
76
77
78
79
92
93
94
95
96
97
98
99
123
119
80
82
66
56
55
37
38
24
39
40
41
42
43
44
45
10
11
12
13
14
15
51
50
49
48
46
54
86
85
84
89
90
100
101
102
113
112
111
110
109
108
107
106
105
104
103
88
87
53
52
47
17
16
9
18
19
20
21
23
22
25
26
57
83
81
114
115
116
117
118
120
121
122
91
75
73
70
69
67
65
61
59
60
58
33
34
29
28
27
7
3
-1
EOF
